[Molden Format]
[GTO]
    1 0
 s  10 1.00
   11720.0000000    0.0007100000
    1759.0000000    0.0054700000
     400.8000000    0.0278370000
     113.7000000    0.1048000000
      37.0300000    0.2830620000
      13.2700000    0.4487190000
       5.0250000    0.2709520000
       1.0130000    0.0154580000
       0.3023000   -0.0025850000
       0.0789600    0.0000000000
 s  10 1.00
   11720.0000000   -0.0001600000
    1759.0000000   -0.0012630000
     400.8000000   -0.0062670000
     113.7000000   -0.0257160000
      37.0300000   -0.0709240000
      13.2700000   -0.1654110000
       5.0250000   -0.1169550000
       1.0130000    0.5573680000
       0.3023000    0.5727590000
       0.0789600    0.0000000000
 s  10 1.00
   11720.0000000    0.0000000000
    1759.0000000    0.0000000000
     400.8000000    0.0000000000
     113.7000000    0.0000000000
      37.0300000    0.0000000000
      13.2700000    0.0000000000
       5.0250000    0.0000000000
       1.0130000    0.0000000000
       0.3023000    1.0000000000
       0.0789600    0.0000000000
 s  10 1.00
   11720.0000000    0.0000000000
    1759.0000000    0.0000000000
     400.8000000    0.0000000000
     113.7000000    0.0000000000
      37.0300000    0.0000000000
      13.2700000    0.0000000000
       5.0250000    0.0000000000
       1.0130000    0.0000000000
       0.3023000    0.0000000000
       0.0789600    1.0000000000
 p   5 1.00
      17.7000000    0.0430180000
       3.8540000    0.2289130000
       1.0460000    0.5087280000
       0.2753000    0.4605310000
       0.0685600    0.0000000000
 p   5 1.00
      17.7000000    0.0000000000
       3.8540000    0.0000000000
       1.0460000    0.0000000000
       0.2753000    1.0000000000
       0.0685600    0.0000000000
 p   5 1.00
      17.7000000    0.0000000000
       3.8540000    0.0000000000
       1.0460000    0.0000000000
       0.2753000    0.0000000000
       0.0685600    1.0000000000
 d   2 1.00
       1.1850000    1.0000000000
       0.3320000    0.0000000000
 d   2 1.00
       1.1850000    0.0000000000
       0.3320000    1.0000000000

    2 0
 s   5 1.00
      13.0100000    0.0196850000
       1.9620000    0.1379770000
       0.4446000    0.4781480000
       0.1220000    0.5012400000
       0.0297400    0.0000000000
 s   5 1.00
      13.0100000    0.0000000000
       1.9620000    0.0000000000
       0.4446000    0.0000000000
       0.1220000    1.0000000000
       0.0297400    0.0000000000
 s   5 1.00
      13.0100000    0.0000000000
       1.9620000    0.0000000000
       0.4446000    0.0000000000
       0.1220000    0.0000000000
       0.0297400    1.0000000000
 p   2 1.00
       0.7270000    1.0000000000
       0.1410000    0.0000000000
 p   2 1.00
       0.7270000    0.0000000000
       0.1410000    1.0000000000

    3 0
 s   5 1.00
      13.0100000    0.0196850000
       1.9620000    0.1379770000
       0.4446000    0.4781480000
       0.1220000    0.5012400000
       0.0297400    0.0000000000
 s   5 1.00
      13.0100000    0.0000000000
       1.9620000    0.0000000000
       0.4446000    0.0000000000
       0.1220000    1.0000000000
       0.0297400    0.0000000000
 s   5 1.00
      13.0100000    0.0000000000
       1.9620000    0.0000000000
       0.4446000    0.0000000000
       0.1220000    0.0000000000
       0.0297400    1.0000000000
 p   2 1.00
       0.7270000    1.0000000000
       0.1410000    0.0000000000
 p   2 1.00
       0.7270000    0.0000000000
       0.1410000    1.0000000000

[SCFCONV]
scf-first  1  THROUGH   9
      -75.8515468878
      -76.0301620888
      -76.0405776998
      -76.0416745858
      -76.0417890246
      -76.0418083700
      -76.0418093042
      -76.0418093197
      -76.0418093200
[TITLE]
*** Dalton interface to Molden, wave function type : HF  24Sep26   09:18:42
[Atoms] AU
O          1     8         0.0000000000         0.0000005943         0.192592350
H          2     1         0.0000000000         1.4214240411        -0.872123011
H          3     1         0.0000000000        -1.4214246355        -0.872123467
[5D7F]
[9G]
[MO]
Sym= A
Ene=  -20.5735
Spin= Alpha
Occup=  2.0000
    1       -1.000993
    2       -0.004529
    3        0.007139
    4        0.004524
    7        0.002432
   10       -0.002492
   13       -0.000632
   14        0.000001
   17        0.000147
   19       -0.000047
   22       -0.000261
   24       -0.000369
   25       -0.003409
   26       -0.000322
   28       -0.000435
   29        0.000319
   31        0.001183
   32       -0.000987
   33       -0.000369
   34       -0.003409
   35       -0.000322
   37        0.000435
   38        0.000319
   40       -0.001183
   41       -0.000987
Sym= A
Ene=   -1.3645
Spin= Alpha
Occup=  2.0000
    1        0.006618
    2       -0.878136
    3        0.142211
    4       -0.054709
    7        0.117137
   10       -0.076162
   13        0.010777
   14       -0.002546
   17        0.007328
   19        0.004798
   22       -0.021612
   24       -0.364047
   25        0.206943
   26        0.001692
   28        0.038358
   29       -0.022659
   31       -0.004271
   32        0.007443
   33       -0.364046
   34        0.206942
   35        0.001692
   37       -0.038358
   38       -0.022659
   40        0.004271
   41        0.007443
Sym= A
Ene=   -0.7326
Spin= Alpha
Occup=  2.0000
    2        0.000001
    6       -0.730176
    7        0.000001
    9        0.156780
   12       -0.017875
   16        0.029391
   21       -0.033950
   24       -0.608241
   25        0.220258
   26        0.004259
   28        0.026619
   29       -0.034063
   31        0.008062
   32       -0.001956
   33        0.608240
   34       -0.220258
   35       -0.004259
   37        0.026619
   38        0.034063
   40        0.008062
   41        0.001956
Sym= A
Ene=   -0.5854
Spin= Alpha
Occup=  2.0000
    1       -0.001305
    2       -0.296434
    3       -0.152750
    4       -0.076478
    6       -0.000001
    7       -0.805420
   10        0.044851
   13       -0.040003
   14        0.014737
   17       -0.004377
   19        0.016540
   22        0.012075
   24        0.356789
   25       -0.123807
   26        0.003649
   28       -0.030595
   29       -0.000343
   31       -0.001848
   32       -0.013102
   33        0.356790
   34       -0.123806
   35        0.003649
   37        0.030595
   38       -0.000343
   40        0.001848
   41       -0.013102
Sym= A
Ene=   -0.5104
Spin= Alpha
Occup=  2.0000
    5        0.914890
    8        0.028036
   11        0.068754
   15       -0.014052
   20       -0.018640
   27        0.027161
   30        0.015738
   36        0.027161
   39        0.015738
Sym= A
Ene=    0.0359
Spin= Alpha
Occup=  0.0000
    1        0.004511
    2       -0.101038
    3       -0.171538
    4       -1.598076
    7        0.080045
   10        0.089452
   12        0.000002
   13        0.208167
   14       -0.002497
   17        0.000463
   19        0.002295
   22        0.010118
   24        0.029832
   25        0.477802
   26        0.843406
   28        0.004150
   29       -0.002038
   31       -0.086247
   32        0.077903
   33        0.029832
   34        0.477803
   35        0.843419
   37       -0.004150
   38       -0.002038
   40        0.086248
   41        0.077903
Sym= A
Ene=    0.0579
Spin= Alpha
Occup=  0.0000
    4        0.000002
    6        0.092914
    9        0.096963
   12        0.851801
   16       -0.001676
   21       -0.017179
   24        0.003257
   25       -0.578010
   26       -3.003684
   28       -0.000189
   29        0.003863
   31        0.103424
   32       -0.131183
   33       -0.003257
   34        0.578009
   35        3.003681
   37       -0.000189
   38       -0.003863
   40        0.103424
   41        0.131182
Sym= A
Ene=    0.1737
Spin= Alpha
Occup=  0.0000
    1       -0.029199
    2       -0.154613
    3        0.462847
    4        4.105847
    7        0.250174
   10       -0.109865
   12       -0.000002
   13       -1.919718
   14       -0.011954
   17        0.002468
   19        0.041663
   22       -0.045205
   24       -0.032642
   25       -1.769233
   26       -0.615344
   28        0.034601
   29       -0.022904
   31        0.322652
   32       -0.119303
   33       -0.032641
   34       -1.769233
   35       -0.615345
   37       -0.034601
   38       -0.022904
   40       -0.322653
   41       -0.119304
Sym= A
Ene=    0.1956
Spin= Alpha
Occup=  0.0000
    5        0.253212
    8        0.117434
   11       -1.456683
   15       -0.017518
   20        0.059573
   27       -0.009115
   30        0.296762
   36       -0.009115
   39        0.296762
Sym= A
Ene=    0.2236
Spin= Alpha
Occup=  0.0000
    1       -0.025946
    2       -0.369421
    3        0.258964
    4        3.107611
    6        0.000001
    7        0.066693
   10       -0.209224
   12       -0.000002
   13        0.452451
   14        0.007693
   17       -0.003636
   19       -0.043497
   22       -0.032131
   24        0.057883
   25       -0.617650
   26       -0.698274
   28        0.021250
   29       -0.011688
   31        0.446875
   32       -0.492338
   33        0.057884
   34       -0.617650
   35       -0.698277
   37       -0.021250
   38       -0.011688
   40       -0.446876
   41       -0.492338
Sym= A
Ene=    0.2303
Spin= Alpha
Occup=  0.0000
    2       -0.000001
    3        0.000001
    4        0.000009
    6       -0.239281
    9        0.384522
   12        3.158614
   13       -0.000001
   16        0.007510
   21       -0.091855
   24       -0.141313
   25       -2.672362
   26       -2.757749
   28        0.039098
   29       -0.021237
   31        0.594491
   32       -0.553586
   33        0.141313
   34        2.672356
   35        2.757747
   37        0.039098
   38        0.021237
   40        0.594491
   41        0.553585
Sym= A
Ene=    0.2968
Spin= Alpha
Occup=  0.0000
    2       -0.000001
    3        0.000001
    4        0.000016
    6       -0.315656
    9       -0.122988
   10       -0.000001
   12       -0.922865
   13       -0.000002
   16       -0.016396
   21        0.076665
   24        0.206599
   25        0.864874
   26       -0.273171
   28       -0.014150
   29       -0.000732
   31        0.445995
   32       -0.509326
   33       -0.206600
   34       -0.864888
   35        0.273168
   37       -0.014150
   38        0.000732
   40        0.445995
   41        0.509322
Sym= A
Ene=    0.3312
Spin= Alpha
Occup=  0.0000
    1        0.012347
    2        0.005447
    3       -0.243327
    4       -4.342275
    6       -0.000001
    7        0.132194
   10        0.158991
   12       -0.000001
   13        0.569137
   14       -0.024694
   17       -0.024971
   19        0.090338
   22        0.106762
   24        0.196866
   25        2.264648
   26        0.248297
   28       -0.007763
   29        0.030879
   31        0.387302
   32        0.446621
   33        0.196865
   34        2.264644
   35        0.248299
   37        0.007763
   38        0.030879
   40       -0.387299
   41        0.446625
Sym= A
Ene=    0.3861
Spin= Alpha
Occup=  0.0000
   18       -0.040281
   23        0.136956
   27       -0.004740
   30       -1.149529
   36        0.004740
   39        1.149529
Sym= A
Ene=    0.4103
Spin= Alpha
Occup=  0.0000
    1       -0.000027
    2        0.021705
    3       -0.017087
    4       -4.362930
    7        0.278558
    9        0.000001
   10        0.666472
   12        0.000001
   13        1.820906
   14        0.019607
   17        0.011397
   19       -0.105849
   22       -0.026790
   24        0.098011
   25        2.288314
   26        0.281079
   28       -0.050477
   29        0.002275
   31       -0.340220
   32       -0.748745
   33        0.098011
   34        2.288317
   35        0.281079
   37        0.050477
   38        0.002275
   40        0.340222
   41       -0.748743
Sym= A
Ene=    0.4392
Spin= Alpha
Occup=  0.0000
    5        0.224920
    8        0.579483
   11        1.185743
   15        0.022733
   20       -0.070376
   27       -0.002369
   30       -1.220107
   36       -0.002369
   39       -1.220105
Sym= A
Ene=    0.5400
Spin= Alpha
Occup=  0.0000
    4       -0.000003
    6       -0.122204
    9       -0.075893
   12       -1.990093
   16        0.019502
   21       -0.046210
   24       -0.056954
   25       -1.473448
   26        0.803195
   28       -0.023009
   29       -0.022553
   31        2.369821
   32        1.039468
   33        0.056954
   34        1.473451
   35       -0.803194
   37       -0.023009
   38        0.022553
   40        2.369820
   41       -1.039467
Sym= A
Ene=    0.6537
Spin= Alpha
Occup=  0.0000
    1       -0.106375
    2        0.060039
    3        2.860354
    4        6.080572
    6       -0.000004
    7       -0.275654
    9       -0.000015
   10       -0.447944
   12       -0.000023
   13       -0.697301
   14        0.008708
   17       -0.010856
   19        0.004319
   21        0.000001
   22        0.049916
   24       -0.236192
   25       -3.503596
   26       -0.567867
   28       -0.001710
   29       -0.003704
   31        1.354493
   32       -1.147154
   33       -0.236197
   34       -3.503742
   35       -0.567893
   37        0.001710
   38       -0.003704
   40       -1.354550
   41       -1.147184
Sym= A
Ene=    0.6582
Spin= Alpha
Occup=  0.0000
    1       -0.000001
    2        0.000001
    3        0.000030
    4        0.000065
    6        0.377882
    7       -0.000003
    9        1.636223
   10       -0.000004
   12        2.637926
   13       -0.000008
   16       -0.030612
   21       -0.112013
   22        0.000001
   24       -0.165289
   25       -8.696651
   26       -1.467632
   28        0.029898
   29       -0.048137
   31        3.241874
   32       -1.665988
   33        0.165285
   34        8.696575
   35        1.467620
   37        0.029898
   38        0.048137
   40        3.241849
   41        1.665966
Sym= A
Ene=    0.8259
Spin= Alpha
Occup=  0.0000
    2       -0.000001
    3        0.000007
    4        0.000018
    6        0.406453
    9       -0.480611
   10       -0.000002
   12       -1.089464
   13       -0.000003
   16        0.056257
   21        0.720469
   22       -0.000001
   24       -0.690719
   25        2.799470
   26        0.157263
   28       -0.130320
   29        0.153582
   31       -0.313397
   32       -0.157831
   33        0.690723
   34       -2.799496
   35       -0.157265
   37       -0.130321
   38       -0.153582
   40       -0.313401
   41        0.157827
Sym= A
Ene=    0.9297
Spin= Alpha
Occup=  0.0000
    1        0.078349
    2        0.372397
    3       -1.202363
    4       -4.582692
    6        0.000001
    7       -0.114099
    9        0.000001
   10        0.270722
   12       -0.000001
   13        1.139835
   14        0.002166
   17        0.040342
   19       -0.074378
   21        0.000002
   22        0.758091
   24       -0.817074
   25        3.546896
   26        0.195161
   28       -0.178713
   29        0.091181
   31       -0.120479
   32        0.275063
   33       -0.817072
   34        3.546897
   35        0.195161
   37        0.178712
   38        0.091180
   40        0.120484
   41        0.275066
Sym= A
Ene=    1.0970
Spin= Alpha
Occup=  0.0000
    5       -0.283540
    8        0.091618
   11       -0.729129
   15       -0.021072
   20        1.120399
   23        0.000002
   27       -0.013661
   30        0.584031
   36       -0.013661
   39        0.584033
Sym= A
Ene=    1.1113
Spin= Alpha
Occup=  0.0000
    1        0.008389
    2       -0.029441
    3       -0.594763
    4       -0.938458
    7       -0.213094
   10        0.195185
   13       -0.498114
   14       -0.017114
   17        0.024531
   19        1.137687
   21        0.000001
   22        0.025902
   24       -0.174225
   25        0.770651
   26        0.059954
   28       -0.093654
   29        0.010253
   31        0.050777
   32        0.671402
   33       -0.174226
   34        0.770652
   35        0.059953
   37        0.093654
   38        0.010253
   40       -0.050775
   41        0.671402
Sym= A
Ene=    1.1506
Spin= Alpha
Occup=  0.0000
    5        0.000001
   11        0.000001
   18       -0.017259
   20       -0.000002
   23        1.246309
   27        0.031898
   30       -0.749936
   36       -0.031898
   39        0.749934
Sym= A
Ene=    1.3244
Spin= Alpha
Occup=  0.0000
    1       -0.101083
    2       -0.411820
    3        1.872483
    4        3.358894
    6        0.000001
    7        0.786832
    9       -0.000001
   10       -1.560725
   13       -0.765265
   14        0.003788
   17       -0.100263
   19        0.396756
   21       -0.000001
   22        0.779020
   24        0.789589
   25       -2.899236
   26       -0.161240
   28        0.352143
   29       -0.192496
   31        0.672766
   32       -0.040789
   33        0.789592
   34       -2.899234
   35       -0.161239
   37       -0.352142
   38       -0.192496
   40       -0.672765
   41       -0.040790
Sym= A
Ene=    1.4753
Spin= Alpha
Occup=  0.0000
    2        0.000002
    3        0.000002
    4        0.000012
    6       -0.858406
    7        0.000003
    9        2.441353
   10       -0.000008
   12        1.166578
   13       -0.000001
   16       -0.116616
   21        0.763261
   22       -0.000002
   24        0.515256
   25       -4.910964
   26       -0.309783
   28        0.302199
   29       -0.309063
   31        1.253775
   32       -1.099235
   33       -0.515265
   34        4.910956
   35        0.309781
   37        0.302198
   38        0.309062
   40        1.253774
   41        1.099236
Sym= A
Ene=    1.4908
Spin= Alpha
Occup=  0.0000
    5       -1.431281
    8        2.311884
   11        0.145510
   15       -0.002413
   20       -0.416985
   23        0.000001
   27       -0.032086
   30       -0.587286
   36       -0.032085
   39       -0.587285
Sym= A
Ene=    1.5880
Spin= Alpha
Occup=  0.0000
    1       -0.173849
    2       -0.990041
    3        0.881990
    4       -1.447977
    6       -0.000003
    7       -1.017745
    9        0.000008
   10        2.125987
   12        0.000004
   13        0.174025
   14       -0.003384
   17       -0.048493
   19       -0.138615
   21        0.000003
   22        0.771568
   24        1.510787
   25       -0.408501
   26        0.148400
   28        0.087642
   29        0.027517
   31        0.015591
   32       -0.272308
   33        1.510783
   34       -0.408465
   35        0.148402
   37       -0.087640
   38        0.027520
   40       -0.015580
   41       -0.272300
Sym= A
Ene=    2.0130
Spin= Alpha
Occup=  0.0000
    2       -0.000001
    3        0.000001
    6       -0.346792
    7       -0.000001
    9        0.816762
   10        0.000001
   12        0.971656
   16        0.062819
   21       -0.646263
   24       -0.726659
   25       -0.251905
   26       -0.442601
   28        0.528254
   29        0.660347
   31       -0.433501
   32       -0.569599
   33        0.726660
   34        0.251903
   35        0.442600
   37        0.528255
   38       -0.660347
   40       -0.433501
   41        0.569599
Sym= A
Ene=    2.0273
Spin= Alpha
Occup=  0.0000
    5       -0.000001
    8        0.000002
   11       -0.000001
   18        0.072545
   20       -0.000002
   23       -0.906380
   27        0.962628
   30       -0.064414
   36       -0.962634
   39        0.064416
Sym= A
Ene=    2.1151
Spin= Alpha
Occup=  0.0000
    5       -0.076070
    8       -0.737616
   11        0.165385
   15       -0.060375
   20        0.685075
   23       -0.000003
   27        1.000054
   30       -0.082200
   36        1.000047
   39       -0.082201
Sym= A
Ene=    2.3966
Spin= Alpha
Occup=  0.0000
    1        0.246270
    2        1.006250
    3       -2.096289
    4       -1.104291
    6       -0.000002
    7        0.079571
    9        0.000005
   10       -0.697784
   12        0.000001
   13        0.117540
   14       -0.084077
   17       -0.062405
   19        1.323581
   21       -0.000002
   22        0.782390
   24        0.197028
   25        0.799749
   26        0.066462
   28        0.613707
   29        1.027722
   31       -0.164806
   32        0.364621
   33        0.197036
   34        0.799755
   35        0.066463
   37       -0.613706
   38        1.027721
   40        0.164811
   41        0.364622
Sym= A
Ene=    2.5117
Spin= Alpha
Occup=  0.0000
    1        0.000003
    2        0.000015
    3       -0.000017
    4       -0.000005
    6       -1.411240
    7       -0.000004
    9        3.213038
   10        0.000004
   12        0.684085
   16        0.083432
   17        0.000001
   19       -0.000002
   21       -0.941717
   22       -0.000002
   24       -1.668604
   25       -2.545557
   26       -0.433233
   28       -0.625559
   29        0.181324
   31        1.379194
   32       -0.682736
   33        1.668600
   34        2.545566
   35        0.433235
   37       -0.625563
   38       -0.181331
   40        1.379201
   41        0.682740
Sym= A
Ene=    2.6627
Spin= Alpha
Occup=  0.0000
    1       -0.841430
    2       -3.634621
    3        4.848574
    4        1.980331
    6       -0.000005
    7        0.747354
    9        0.000049
   10       -0.976131
   12        0.000014
   13       -0.166091
   14       -0.043915
   16        0.000004
   17       -0.040208
   19        0.116711
   21       -0.000022
   22        0.024935
   24       -0.061685
   25       -1.411444
   26       -0.182275
   28       -0.414649
   29        0.473742
   31        0.661543
   32       -0.542211
   33       -0.061599
   34       -1.411370
   35       -0.182263
   37        0.414650
   38        0.473751
   40       -0.661505
   41       -0.542194
Sym= A
Ene=    2.7293
Spin= Alpha
Occup=  0.0000
    1       -0.000009
    2       -0.000037
    3        0.000050
    4        0.000020
    6       -0.376698
    7        0.000007
    9       -3.242709
   10       -0.000012
   12       -1.061547
   13       -0.000002
   16       -0.383811
   19        0.000002
   21        1.800607
   22       -0.000001
   24        3.577066
   25        2.090285
   26        0.335991
   28       -0.464800
   29        0.624413
   31       -1.079493
   32        0.470654
   33       -3.577070
   34       -2.090312
   35       -0.335994
   37       -0.464797
   38       -0.624404
   40       -1.079507
   41       -0.470665
Sym= A
Ene=    2.9570
Spin= Alpha
Occup=  0.0000
    1        0.646425
    2        2.325993
    3       -6.878783
    4       -4.163656
    6       -0.000002
    7        0.493675
    9        0.000002
   10        2.011721
   13        0.757708
   14        0.089200
   16       -0.000001
   17       -0.374921
   19       -0.422323
   22        0.863170
   24        2.951526
   25        1.551830
   26        0.228937
   28       -0.941176
   29        0.277730
   31       -0.584143
   32        0.437385
   33        2.951522
   34        1.551832
   35        0.228937
   37        0.941175
   38        0.277730
   40        0.584144
   41        0.437385
Sym= A
Ene=    3.6725
Spin= Alpha
Occup=  0.0000
    5       -0.073961
    8        0.192183
   11        0.309262
   15        1.193624
   18        0.000001
   20       -0.657055
   23       -0.000001
   27        0.117523
   30       -0.299199
   36        0.117523
   39       -0.299200
Sym= A
Ene=    3.6923
Spin= Alpha
Occup=  0.0000
    1       -0.097249
    2       -0.366051
    3        0.912632
    4        0.264135
    7       -0.067062
    9       -0.000001
   10       -0.111347
   13        0.238869
   14        1.198134
   17        0.040789
   19       -0.584084
   22       -0.061233
   24       -0.284926
   25       -0.084188
   26       -0.019737
   28        0.165078
   29        0.120894
   31       -0.021313
   32       -0.310823
   33       -0.284928
   34       -0.084190
   35       -0.019737
   37       -0.165078
   38        0.120894
   40        0.021311
   41       -0.310823
Sym= A
Ene=    3.7081
Spin= Alpha
Occup=  0.0000
   11       -0.000001
   15       -0.000001
   18        1.208459
   20        0.000001
   23       -0.681163
   27       -0.145350
   30        0.327653
   36        0.145349
   39       -0.327652
Sym= A
Ene=    4.0642
Spin= Alpha
Occup=  0.0000
    1        0.285400
    2        0.894021
    3       -4.115673
    4       -1.629471
    7        0.515177
    9        0.000005
   10        1.176545
   12        0.000001
   13        0.258746
   14        0.002317
   16       -0.000004
   17        1.231838
   19       -0.143441
   22       -0.144463
   24        2.309741
   25        0.158953
   26        0.087866
   28       -0.710389
   29        0.497744
   31       -0.424276
   32        0.168309
   33        2.309749
   34        0.158954
   35        0.087866
   37        0.710393
   38        0.497746
   40        0.424277
   41        0.168312
Sym= A
Ene=    4.3424
Spin= Alpha
Occup=  0.0000
    1       -0.000001
    2       -0.000001
    3        0.000018
    4        0.000009
    6        0.531854
    7       -0.000003
    9        2.310603
   10       -0.000005
   12        0.625539
   13       -0.000001
   14        0.000001
   16       -1.334166
   17       -0.000004
   19        0.000001
   21       -0.323115
   24       -2.793892
   25       -1.220060
   26       -0.187281
   28        0.691209
   29       -0.543970
   31        0.717976
   32       -0.610319
   33        2.793869
   34        1.220058
   35        0.187280
   37        0.691204
   38        0.543967
   40        0.717973
   41        0.610317
[End of Molden output from Dalton]
